c 
c U(n,d) graph
c graph gen seed     : 12926
c number of vertices : 50
c max number of edges: 1225
c Euclidean distance : 0.400000
c data structure     : sparse
c
c           Graph Stats
c number of vertices  : 50
c nonisolated vertices: 50
c number of edges     : 399
c edge density        : 0.325714
c max degree          : 27
c avg degree          : 15.96
c min degree          : 6
p col 50 399
e 1 50
e 1 49
e 1 45
e 1 41
e 1 39
e 1 35
e 1 31
e 1 28
e 1 27
e 1 25
e 1 22
e 1 16
e 1 14
e 1 13
e 1 11
e 1 8
e 1 6
e 1 3
e 1 2
e 2 50
e 2 45
e 2 41
e 2 39
e 2 35
e 2 31
e 2 28
e 2 27
e 2 25
e 2 24
e 2 22
e 2 16
e 2 14
e 2 13
e 2 11
e 2 8
e 2 6
e 2 3
e 3 50
e 3 49
e 3 46
e 3 45
e 3 42
e 3 41
e 3 39
e 3 35
e 3 34
e 3 31
e 3 28
e 3 27
e 3 25
e 3 24
e 3 22
e 3 19
e 3 16
e 3 14
e 3 13
e 3 12
e 3 11
e 3 8
e 3 6
e 4 47
e 4 43
e 4 33
e 4 29
e 4 26
e 4 21
e 4 15
e 4 7
e 5 48
e 5 47
e 5 38
e 5 29
e 5 24
e 5 21
e 5 20
e 5 17
e 5 12
e 5 7
e 6 50
e 6 49
e 6 46
e 6 45
e 6 42
e 6 41
e 6 39
e 6 37
e 6 36
e 6 35
e 6 34
e 6 31
e 6 28
e 6 27
e 6 25
e 6 24
e 6 22
e 6 19
e 6 16
e 6 14
e 6 13
e 6 11
e 6 10
e 6 8
e 7 48
e 7 47
e 7 43
e 7 29
e 7 24
e 7 21
e 7 17
e 7 15
e 7 12
e 8 50
e 8 47
e 8 41
e 8 39
e 8 35
e 8 31
e 8 28
e 8 27
e 8 26
e 8 25
e 8 24
e 8 22
e 8 16
e 8 14
e 8 13
e 8 11
e 8 9
e 9 47
e 9 39
e 9 35
e 9 33
e 9 32
e 9 31
e 9 28
e 9 27
e 9 26
e 9 22
e 9 18
e 9 14
e 10 50
e 10 49
e 10 46
e 10 45
e 10 42
e 10 41
e 10 40
e 10 37
e 10 36
e 10 34
e 10 23
e 10 19
e 10 16
e 11 50
e 11 49
e 11 48
e 11 45
e 11 42
e 11 41
e 11 40
e 11 39
e 11 36
e 11 35
e 11 31
e 11 25
e 11 24
e 11 23
e 11 22
e 11 20
e 11 19
e 11 16
e 11 13
e 11 12
e 12 50
e 12 48
e 12 44
e 12 40
e 12 38
e 12 36
e 12 30
e 12 24
e 12 23
e 12 21
e 12 20
e 12 19
e 12 17
e 12 16
e 12 13
e 13 50
e 13 41
e 13 39
e 13 35
e 13 31
e 13 28
e 13 27
e 13 26
e 13 25
e 13 24
e 13 22
e 13 16
e 13 14
e 14 41
e 14 39
e 14 35
e 14 32
e 14 31
e 14 28
e 14 27
e 14 25
e 14 22
e 14 18
e 15 47
e 15 43
e 15 33
e 15 29
e 15 26
e 15 21
e 16 50
e 16 49
e 16 46
e 16 45
e 16 42
e 16 41
e 16 40
e 16 37
e 16 36
e 16 34
e 16 25
e 16 24
e 16 23
e 16 20
e 16 19
e 17 48
e 17 38
e 17 30
e 17 29
e 17 24
e 17 21
e 17 20
e 18 39
e 18 35
e 18 32
e 18 31
e 18 28
e 18 27
e 18 22
e 19 50
e 19 49
e 19 46
e 19 45
e 19 42
e 19 41
e 19 40
e 19 37
e 19 36
e 19 34
e 19 30
e 19 23
e 19 20
e 20 50
e 20 48
e 20 44
e 20 42
e 20 40
e 20 38
e 20 36
e 20 30
e 20 24
e 20 23
e 21 48
e 21 47
e 21 43
e 21 33
e 21 29
e 21 26
e 21 24
e 22 50
e 22 47
e 22 39
e 22 35
e 22 33
e 22 32
e 22 31
e 22 29
e 22 28
e 22 27
e 22 26
e 22 25
e 22 24
e 23 50
e 23 49
e 23 46
e 23 45
e 23 44
e 23 42
e 23 40
e 23 36
e 23 30
e 24 50
e 24 48
e 24 47
e 24 38
e 24 30
e 24 29
e 25 50
e 25 49
e 25 45
e 25 41
e 25 39
e 25 35
e 25 32
e 25 31
e 25 28
e 25 27
e 26 47
e 26 43
e 26 39
e 26 33
e 26 31
e 26 29
e 27 41
e 27 39
e 27 35
e 27 32
e 27 31
e 27 28
e 28 41
e 28 39
e 28 35
e 28 32
e 28 31
e 29 48
e 29 47
e 29 43
e 29 33
e 29 31
e 30 48
e 30 44
e 30 40
e 30 38
e 30 36
e 31 47
e 31 39
e 31 35
e 31 33
e 31 32
e 32 39
e 32 35
e 33 47
e 33 43
e 34 50
e 34 49
e 34 46
e 34 45
e 34 42
e 34 41
e 34 37
e 34 36
e 35 50
e 35 41
e 35 39
e 36 50
e 36 49
e 36 46
e 36 45
e 36 42
e 36 40
e 37 50
e 37 49
e 37 46
e 37 45
e 37 42
e 37 41
e 38 48
e 38 44
e 38 40
e 39 47
e 40 50
e 40 49
e 40 46
e 40 45
e 40 44
e 40 42
e 41 50
e 41 49
e 41 46
e 41 45
e 41 42
e 42 50
e 42 49
e 42 46
e 42 45
e 43 47
e 45 50
e 45 49
e 45 46
e 46 50
e 46 49
e 49 50
